100 85253

 966 138
810 161
941 77
141 206
72 716
558 809
291 453
829 507
672 33
971 70
255 258
486 544
502 740
240 606
591 393
444 119
447 781
363 364
17 737
523 513
336 739
2 908
308 922
279 536
394 512
132 266
508 936
693 458
631 128
804 433
453 128
520 503
811 562
428 338
702 72
435 944
418 774
761 839
175 367
339 761
225 486
360 202
231 125
580 346
799 138
787 999
365 50
989 442
594 453
400 301
836 572
730 150
750 784
197 333
469 592
862 716
505 890
684 836
588 609
843 389
285 504
576 769
124 878
691 104
732 385
43 777
676 432
415 333
125 412
420 603
195 1000
416 493
385 209
739 163
775 43
608 559
23 545
932 206
687 696
35 742
819 260
201 345
580 991
467 375
420 761
890 453
438 794
76 770
947 668
921 855
685 940
468 580
93 238
791 399
76 759
69 651
538 178
161 52
8 683
424 252
